NAME : iia15
COMMENT : 15 ciudades en circunferencia radio 1000
TYPE : TSP
DIMENSION: 15
EDGE_WEIGHT_TYPE : EUC_2D
NODE_COORD_SECTION
1 2000.0 1000.0
2 1913.545457642601 1406.7366430758002
3 1669.1306063588581 1743.144825477394
4 1309.0169943749474 1951.0565162951534
5 895.4715367323466 1994.5218953682734
6 500.0000000000002 1866.0254037844388
7 190.98300562505267 1587.7852522924732
8 21.852399266194425 1207.9116908177598
9 21.85239926619431 792.0883091822409
10 190.98300562505256 412.21474770752695
11 499.99999999999955 133.97459621556152
12 895.4715367323457 5.478104631726751
13 1309.0169943749472 48.94348370484636
14 1669.1306063588577 256.85517452260547
15 1913.5454576426005 593.2633569241991
EOF
